units lj
atom_style bond
boundary p p p

read_data init.data 

velocity all create 1 42

pair_style none

bond_style harmonic
bond_coeff 1 5 1.

thermo 1000

fix 1 all nve
fix 2 all langevin 1. 1. 1. 42

timestep 0.001

dump 1 all custom 100 dump.lammpstrj id mol type xu yu zu
dump_modify 1 format line "%d %d %d %.8g %.8g %.8g"

run 10000